(set-info :source |printed by MathSAT|)
(declare-fun ldv_urb_state () (_ BitVec 32))
(declare-fun ldv_coherent_state () (_ BitVec 32))

*:
(assert (let ((.def_38969 (= ldv_urb_state (_ bv0 32)))).def_38969))
(assert (let ((.def_38976 (= ldv_coherent_state (_ bv0 32)))).def_38976))
(assert (let ((.def_38982 (bvslt ldv_coherent_state (_ bv1 32)))).def_38982))
(assert (let ((.def_38988 (bvslt ldv_urb_state (_ bv1 32)))).def_38988))

